HFSDDW
15	12	4
0	13	1	21	2	43	3	39
0	15	1	71	2	8	3	19
0	60	1	50	2	86	3	58
0	40	1	50	2	99	3	29
0	63	1	60	2	61	3	30
0	4	1	7	2	57	3	63
0	58	1	59	2	89	3	19
0	43	1	44	2	89	3	93
0	36	1	46	2	59	3	1
0	87	1	67	2	64	3	77
0	41	1	19	2	41	3	31
0	56	1	80	2	21	3	34
0	8	1	41	2	91	3	28
0	83	1	41	2	43	3	7
0	63	1	79	2	80	3	55
LBCmax: 354
RELDUE
-1	306	8	6
-1	311	3	1
-1	303	7	4
-1	259	5	2
-1	291	1	5
-1	314	6	1
-1	263	9	1
-1	315	5	4
-1	313	1	8
-1	319	1	9
-1	277	5	4
-1	317	3	7
-1	317	6	6
-1	308	3	4
-1	312	1	9
DDW
245	367
289	333
242	364
231	287
256	326
286	342
242	284
268	362
310	316
306	332
260	294
266	368
269	365
268	348
250	374
